p cnf 30 64
1 2 3 4 0
1 2 -3 5 0
1 -2 3 8 0
1 -2 -3 7 0
-1 2 3 6 0
-1 2 -3 10 0
-1 -2 3 9 0
-1 -2 -3 11 0
12 13 14 1 2 3 16 0
12 13 14 1 2 -3 15 0
12 13 14 1 -2 3 17 0
12 13 14 1 -2 -3 29 0
12 13 14 -1 2 3 18 0
12 13 14 -1 2 -3 18 0
12 13 14 -1 -2 3 18 0
12 13 14 -1 -2 -3 18 0
12 13 -14 1 2 3 18 0
12 13 -14 1 2 -3 19 0
12 13 -14 1 -2 3 20 0
12 13 -14 1 -2 -3 21 0
12 13 -14 -1 2 3 22 0
12 13 -14 -1 2 -3 18 0
12 13 -14 -1 -2 3 18 0
12 13 -14 -1 -2 -3 18 0
12 -13 14 1 2 3 18 0
12 -13 14 1 2 -3 18 0
12 -13 14 1 -2 3 23 0
12 -13 14 1 -2 -3 24 0
12 -13 14 -1 2 3 28 0
12 -13 14 -1 2 -3 19 0
12 -13 14 -1 -2 3 18 0
12 -13 14 -1 -2 -3 18 0
12 -13 -14 1 2 3 18 0
12 -13 -14 1 2 -3 18 0
12 -13 -14 1 -2 3 18 0
12 -13 -14 1 -2 -3 30 0
12 -13 -14 -1 2 3 25 0
12 -13 -14 -1 2 -3 22 0
12 -13 -14 -1 -2 3 18 0
12 -13 -14 -1 -2 -3 18 0
-12 13 14 1 2 3 18 0
-12 13 14 1 2 -3 18 0
-12 13 14 1 -2 3 18 0
-12 13 14 1 -2 -3 30 0
-12 13 14 -1 2 3 18 0
-12 13 14 -1 2 -3 26 0
-12 13 14 -1 -2 3 18 0
-12 13 14 -1 -2 -3 18 0
-12 13 -14 1 2 3 18 0
-12 13 -14 1 2 -3 18 0
-12 13 -14 1 -2 3 18 0
-12 13 -14 1 -2 -3 18 0
-12 13 -14 -1 2 3 18 0
-12 13 -14 -1 2 -3 18 0
-12 13 -14 -1 -2 3 16 0
-12 13 -14 -1 -2 -3 22 0
-12 -13 14 1 2 3 18 0
-12 -13 14 1 2 -3 18 0
-12 -13 14 1 -2 3 18 0
-12 -13 14 1 -2 -3 18 0
-12 -13 14 -1 2 3 18 0
-12 -13 14 -1 2 -3 18 0
-12 -13 14 -1 -2 3 18 0
-12 -13 14 -1 -2 -3 27 0
